\ SCIP STATISTICS
\   Problem name     : data/t25-5-1000-2-s-1.mochila
\   Variables        : 125 (125 binary, 0 integer, 0 implicit integer, 0 continuous)
\   Constraints      : 30
Maximize
 Obj: +399 x_0_0 +399 x_0_1 +399 x_0_2 +399 x_0_3 +399 x_0_4 +599 x_1_0 +599 x_1_1 +599 x_1_2 +599 x_1_3
      +599 x_1_4 +958 x_2_0 +958 x_2_1 +958 x_2_2 +958 x_2_3 +958 x_2_4 +1053 x_3_0 +1053 x_3_1 +1053 x_3_2
      +1053 x_3_3 +1053 x_3_4 +266 x_4_0 +266 x_4_1 +266 x_4_2 +266 x_4_3 +266 x_4_4 +307 x_5_0 +307 x_5_1
      +307 x_5_2 +307 x_5_3 +307 x_5_4 +241 x_6_0 +241 x_6_1 +241 x_6_2 +241 x_6_3 +241 x_6_4 +316 x_7_0
      +316 x_7_1 +316 x_7_2 +316 x_7_3 +316 x_7_4 +225 x_8_0 +225 x_8_1 +225 x_8_2 +225 x_8_3 +225 x_8_4
      +271 x_9_0 +271 x_9_1 +271 x_9_2 +271 x_9_3 +271 x_9_4 +858 x_10_0 +858 x_10_1 +858 x_10_2 +858 x_10_3
      +858 x_10_4 +133 x_11_0 +133 x_11_1 +133 x_11_2 +133 x_11_3 +133 x_11_4 +679 x_12_0 +679 x_12_1
      +679 x_12_2 +679 x_12_3 +679 x_12_4 +698 x_13_0 +698 x_13_1 +698 x_13_2 +698 x_13_3 +698 x_13_4
      +294 x_14_0 +294 x_14_1 +294 x_14_2 +294 x_14_3 +294 x_14_4 +1014 x_15_0 +1014 x_15_1 +1014 x_15_2
      +1014 x_15_3 +1014 x_15_4 +499 x_16_0 +499 x_16_1 +499 x_16_2 +499 x_16_3 +499 x_16_4 +849 x_17_0
      +849 x_17_1 +849 x_17_2 +849 x_17_3 +849 x_17_4 +486 x_18_0 +486 x_18_1 +486 x_18_2 +486 x_18_3
      +486 x_18_4 +72 x_19_0 +72 x_19_1 +72 x_19_2 +72 x_19_3 +72 x_19_4 +420 x_20_0 +420 x_20_1 +420 x_20_2
      +420 x_20_3 +420 x_20_4 +647 x_21_0 +647 x_21_1 +647 x_21_2 +647 x_21_3 +647 x_21_4 +11 x_22_0 +11 x_22_1
      +11 x_22_2 +11 x_22_3 +11 x_22_4 +811 x_23_0 +811 x_23_1 +811 x_23_2 +811 x_23_3 +811 x_23_4 +861 x_24_0
      +861 x_24_1 +861 x_24_2 +861 x_24_3 +861 x_24_4
Subject to
 capacity_0: +402 x_0_0 +668 x_1_0 +920 x_2_0 +957 x_3_0 +184 x_4_0 +389 x_5_0 +239 x_6_0 +237 x_7_0 +307 x_8_0
  +363 x_9_0 +946 x_10_0 +196 x_11_0 +761 x_12_0 +734 x_13_0 +356 x_14_0 +961 x_15_0 +448 x_16_0 +869 x_17_0
  +448 x_18_0 +52 x_19_0 +430 x_20_0 +685 x_21_0 +100 x_22_0 +742 x_23_0 +818 x_24_0 <= +1128
 capacity_1: +402 x_0_1 +668 x_1_1 +920 x_2_1 +957 x_3_1 +184 x_4_1 +389 x_5_1 +239 x_6_1 +237 x_7_1 +307 x_8_1
  +363 x_9_1 +946 x_10_1 +196 x_11_1 +761 x_12_1 +734 x_13_1 +356 x_14_1 +961 x_15_1 +448 x_16_1 +869 x_17_1
  +448 x_18_1 +52 x_19_1 +430 x_20_1 +685 x_21_1 +100 x_22_1 +742 x_23_1 +818 x_24_1 <= +1169
 capacity_2: +402 x_0_2 +668 x_1_2 +920 x_2_2 +957 x_3_2 +184 x_4_2 +389 x_5_2 +239 x_6_2 +237 x_7_2 +307 x_8_2
  +363 x_9_2 +946 x_10_2 +196 x_11_2 +761 x_12_2 +734 x_13_2 +356 x_14_2 +961 x_15_2 +448 x_16_2 +869 x_17_2
  +448 x_18_2 +52 x_19_2 +430 x_20_2 +685 x_21_2 +100 x_22_2 +742 x_23_2 +818 x_24_2 <= +1223
 capacity_3: +402 x_0_3 +668 x_1_3 +920 x_2_3 +957 x_3_3 +184 x_4_3 +389 x_5_3 +239 x_6_3 +237 x_7_3 +307 x_8_3
  +363 x_9_3 +946 x_10_3 +196 x_11_3 +761 x_12_3 +734 x_13_3 +356 x_14_3 +961 x_15_3 +448 x_16_3 +869 x_17_3
  +448 x_18_3 +52 x_19_3 +430 x_20_3 +685 x_21_3 +100 x_22_3 +742 x_23_3 +818 x_24_3 <= +1471
 capacity_4: +402 x_0_4 +668 x_1_4 +920 x_2_4 +957 x_3_4 +184 x_4_4 +389 x_5_4 +239 x_6_4 +237 x_7_4 +307 x_8_4
  +363 x_9_4 +946 x_10_4 +196 x_11_4 +761 x_12_4 +734 x_13_4 +356 x_14_4 +961 x_15_4 +448 x_16_4 +869 x_17_4
  +448 x_18_4 +52 x_19_4 +430 x_20_4 +685 x_21_4 +100 x_22_4 +742 x_23_4 +818 x_24_4 <= +1615
 item_0: +1 x_0_0 +1 x_0_1 +1 x_0_2 +1 x_0_3 +1 x_0_4 <= +1
 item_1: +1 x_1_0 +1 x_1_1 +1 x_1_2 +1 x_1_3 +1 x_1_4 <= +1
 item_2: +1 x_2_0 +1 x_2_1 +1 x_2_2 +1 x_2_3 +1 x_2_4 <= +1
 item_3: +1 x_3_0 +1 x_3_1 +1 x_3_2 +1 x_3_3 +1 x_3_4 <= +1
 item_4: +1 x_4_0 +1 x_4_1 +1 x_4_2 +1 x_4_3 +1 x_4_4 <= +1
 item_5: +1 x_5_0 +1 x_5_1 +1 x_5_2 +1 x_5_3 +1 x_5_4 <= +1
 item_6: +1 x_6_0 +1 x_6_1 +1 x_6_2 +1 x_6_3 +1 x_6_4 <= +1
 item_7: +1 x_7_0 +1 x_7_1 +1 x_7_2 +1 x_7_3 +1 x_7_4 <= +1
 item_8: +1 x_8_0 +1 x_8_1 +1 x_8_2 +1 x_8_3 +1 x_8_4 <= +1
 item_9: +1 x_9_0 +1 x_9_1 +1 x_9_2 +1 x_9_3 +1 x_9_4 <= +1
 item_10: +1 x_10_0 +1 x_10_1 +1 x_10_2 +1 x_10_3 +1 x_10_4 <= +1
 item_11: +1 x_11_0 +1 x_11_1 +1 x_11_2 +1 x_11_3 +1 x_11_4 <= +1
 item_12: +1 x_12_0 +1 x_12_1 +1 x_12_2 +1 x_12_3 +1 x_12_4 <= +1
 item_13: +1 x_13_0 +1 x_13_1 +1 x_13_2 +1 x_13_3 +1 x_13_4 <= +1
 item_14: +1 x_14_0 +1 x_14_1 +1 x_14_2 +1 x_14_3 +1 x_14_4 <= +1
 item_15: +1 x_15_0 +1 x_15_1 +1 x_15_2 +1 x_15_3 +1 x_15_4 <= +1
 item_16: +1 x_16_0 +1 x_16_1 +1 x_16_2 +1 x_16_3 +1 x_16_4 <= +1
 item_17: +1 x_17_0 +1 x_17_1 +1 x_17_2 +1 x_17_3 +1 x_17_4 <= +1
 item_18: +1 x_18_0 +1 x_18_1 +1 x_18_2 +1 x_18_3 +1 x_18_4 <= +1
 item_19: +1 x_19_0 +1 x_19_1 +1 x_19_2 +1 x_19_3 +1 x_19_4 <= +1
 item_20: +1 x_20_0 +1 x_20_1 +1 x_20_2 +1 x_20_3 +1 x_20_4 <= +1
 item_21: +1 x_21_0 +1 x_21_1 +1 x_21_2 +1 x_21_3 +1 x_21_4 <= +1
 item_22: +1 x_22_0 +1 x_22_1 +1 x_22_2 +1 x_22_3 +1 x_22_4 <= +1
 item_23: +1 x_23_0 +1 x_23_1 +1 x_23_2 +1 x_23_3 +1 x_23_4 <= +1
 item_24: +1 x_24_0 +1 x_24_1 +1 x_24_2 +1 x_24_3 +1 x_24_4 <= +1
Bounds
 0 <= x_0_0 <= 1
 0 <= x_0_1 <= 1
 0 <= x_0_2 <= 1
 0 <= x_0_3 <= 1
 0 <= x_0_4 <= 1
 0 <= x_1_0 <= 1
 0 <= x_1_1 <= 1
 0 <= x_1_2 <= 1
 0 <= x_1_3 <= 1
 0 <= x_1_4 <= 1
 0 <= x_2_0 <= 1
 0 <= x_2_1 <= 1
 0 <= x_2_2 <= 1
 0 <= x_2_3 <= 1
 0 <= x_2_4 <= 1
 0 <= x_3_0 <= 1
 0 <= x_3_1 <= 1
 0 <= x_3_2 <= 1
 0 <= x_3_3 <= 1
 0 <= x_3_4 <= 1
 0 <= x_4_0 <= 1
 0 <= x_4_1 <= 1
 0 <= x_4_2 <= 1
 0 <= x_4_3 <= 1
 0 <= x_4_4 <= 1
 0 <= x_5_0 <= 1
 0 <= x_5_1 <= 1
 0 <= x_5_2 <= 1
 0 <= x_5_3 <= 1
 0 <= x_5_4 <= 1
 0 <= x_6_0 <= 1
 0 <= x_6_1 <= 1
 0 <= x_6_2 <= 1
 0 <= x_6_3 <= 1
 0 <= x_6_4 <= 1
 0 <= x_7_0 <= 1
 0 <= x_7_1 <= 1
 0 <= x_7_2 <= 1
 0 <= x_7_3 <= 1
 0 <= x_7_4 <= 1
 0 <= x_8_0 <= 1
 0 <= x_8_1 <= 1
 0 <= x_8_2 <= 1
 0 <= x_8_3 <= 1
 0 <= x_8_4 <= 1
 0 <= x_9_0 <= 1
 0 <= x_9_1 <= 1
 0 <= x_9_2 <= 1
 0 <= x_9_3 <= 1
 0 <= x_9_4 <= 1
 0 <= x_10_0 <= 1
 0 <= x_10_1 <= 1
 0 <= x_10_2 <= 1
 0 <= x_10_3 <= 1
 0 <= x_10_4 <= 1
 0 <= x_11_0 <= 1
 0 <= x_11_1 <= 1
 0 <= x_11_2 <= 1
 0 <= x_11_3 <= 1
 0 <= x_11_4 <= 1
 0 <= x_12_0 <= 1
 0 <= x_12_1 <= 1
 0 <= x_12_2 <= 1
 0 <= x_12_3 <= 1
 0 <= x_12_4 <= 1
 0 <= x_13_0 <= 1
 0 <= x_13_1 <= 1
 0 <= x_13_2 <= 1
 0 <= x_13_3 <= 1
 0 <= x_13_4 <= 1
 0 <= x_14_0 <= 1
 0 <= x_14_1 <= 1
 0 <= x_14_2 <= 1
 0 <= x_14_3 <= 1
 0 <= x_14_4 <= 1
 0 <= x_15_0 <= 1
 0 <= x_15_1 <= 1
 0 <= x_15_2 <= 1
 0 <= x_15_3 <= 1
 0 <= x_15_4 <= 1
 0 <= x_16_0 <= 1
 0 <= x_16_1 <= 1
 0 <= x_16_2 <= 1
 0 <= x_16_3 <= 1
 0 <= x_16_4 <= 1
 0 <= x_17_0 <= 1
 0 <= x_17_1 <= 1
 0 <= x_17_2 <= 1
 0 <= x_17_3 <= 1
 0 <= x_17_4 <= 1
 0 <= x_18_0 <= 1
 0 <= x_18_1 <= 1
 0 <= x_18_2 <= 1
 0 <= x_18_3 <= 1
 0 <= x_18_4 <= 1
 0 <= x_19_0 <= 1
 0 <= x_19_1 <= 1
 0 <= x_19_2 <= 1
 0 <= x_19_3 <= 1
 0 <= x_19_4 <= 1
 0 <= x_20_0 <= 1
 0 <= x_20_1 <= 1
 0 <= x_20_2 <= 1
 0 <= x_20_3 <= 1
 0 <= x_20_4 <= 1
 0 <= x_21_0 <= 1
 0 <= x_21_1 <= 1
 0 <= x_21_2 <= 1
 0 <= x_21_3 <= 1
 0 <= x_21_4 <= 1
 0 <= x_22_0 <= 1
 0 <= x_22_1 <= 1
 0 <= x_22_2 <= 1
 0 <= x_22_3 <= 1
 0 <= x_22_4 <= 1
 0 <= x_23_0 <= 1
 0 <= x_23_1 <= 1
 0 <= x_23_2 <= 1
 0 <= x_23_3 <= 1
 0 <= x_23_4 <= 1
 0 <= x_24_0 <= 1
 0 <= x_24_1 <= 1
 0 <= x_24_2 <= 1
 0 <= x_24_3 <= 1
 0 <= x_24_4 <= 1
Binaries
 x_0_0 x_0_1 x_0_2 x_0_3 x_0_4 x_1_0 x_1_1 x_1_2 x_1_3 x_1_4 x_2_0 x_2_1 x_2_2 x_2_3 x_2_4 x_3_0 x_3_1
 x_3_2 x_3_3 x_3_4 x_4_0 x_4_1 x_4_2 x_4_3 x_4_4 x_5_0 x_5_1 x_5_2 x_5_3 x_5_4 x_6_0 x_6_1 x_6_2 x_6_3
 x_6_4 x_7_0 x_7_1 x_7_2 x_7_3 x_7_4 x_8_0 x_8_1 x_8_2 x_8_3 x_8_4 x_9_0 x_9_1 x_9_2 x_9_3 x_9_4 x_10_0
 x_10_1 x_10_2 x_10_3 x_10_4 x_11_0 x_11_1 x_11_2 x_11_3 x_11_4 x_12_0 x_12_1 x_12_2 x_12_3 x_12_4 x_13_0
 x_13_1 x_13_2 x_13_3 x_13_4 x_14_0 x_14_1 x_14_2 x_14_3 x_14_4 x_15_0 x_15_1 x_15_2 x_15_3 x_15_4 x_16_0
 x_16_1 x_16_2 x_16_3 x_16_4 x_17_0 x_17_1 x_17_2 x_17_3 x_17_4 x_18_0 x_18_1 x_18_2 x_18_3 x_18_4 x_19_0
 x_19_1 x_19_2 x_19_3 x_19_4 x_20_0 x_20_1 x_20_2 x_20_3 x_20_4 x_21_0 x_21_1 x_21_2 x_21_3 x_21_4 x_22_0
 x_22_1 x_22_2 x_22_3 x_22_4 x_23_0 x_23_1 x_23_2 x_23_3 x_23_4 x_24_0 x_24_1 x_24_2 x_24_3 x_24_4
End
